p cnf 25 63
a 9 20 0
e 1 2 3 4 5 6 7 8 10 11 12 13 14 15 16 17 18 19 21 22 23 24 25 0
-3 -1 0
-3 -2 0
1 2 3 0
3 -4 -5 0
-3 4 -5 0
3 4 5 0
-3 -4 5 0
-8 7 0
-8 -2 0
-7 2 8 0
-9 -6 0
-9 8 0
6 -8 9 0
8 -11 -12 0
-8 11 -12 0
8 11 12 0
-8 -11 12 0
-13 -12 0
-13 -6 0
12 6 13 0
-15 -2 0
-15 -14 0
2 14 15 0
16 -13 0
16 -15 0
13 15 -16 0
17 -10 0
17 -16 0
10 16 -17 0
18 9 0
18 -17 0
-9 17 -18 0
-19 -5 0
-19 18 0
5 -18 19 0
20 -16 0
20 10 0
16 -10 -20 0
-8 -14 -21 0
8 14 -21 0
-8 14 21 0
8 -14 21 0
22 2 0
22 -10 0
-2 10 -22 0
-21 22 -23 0
21 -22 -23 0
-21 -22 23 0
21 22 23 0
-24 20 0
-24 -23 0
-20 23 24 0
-19 -24 -25 0
19 24 -25 0
-19 24 25 0
19 -24 25 0
-1 19 -13 -14 0
23 12 -1 25 -24 -17 0
-25 -14 1 -24 21 12 9 0
-25 1 5 20 -18 0
19 21 -3 0
16 -21 -15 -20 0
25 0
